$molecule
read                 5.txt
$end
 
$XC_FUNCTIONAL
X HF 1.0
X BNL 0.9
C LYP 1.0
$end
 
$rem
jobtype               sp
exchange              general
correlation           none
basis                 6-31G*
SEPARATE_JK           TRUE
derscreen             false
ideriv                0
INCDFT                FALSE
scf_convergence       8
thresh                11
max_scf_cycles        1000
mem_static            3000
MEM_TOTAL             16000
OMEGA                 167
RPA                   2
CIS_N_ROOTS           25
CIS_SINGLETS          TRUE
CIS_TRIPLETS          FALSE
PRINT_ORBITALS        10
pop_mulliken          -1
sts_fcd               true
sts_acceptor          1-6
sts_donor             7-12
MAX_CIS_CYCLES        100
sym_ignore            true
$end
 
